Version identifier: 22.1.0.0 | 2022-03-09 | 1a383f8ce
CPXPARAM_Read_DataCheck                          1
CPXPARAM_TimeLimit                               600
Tried aggregator 4 times.
MIP Presolve eliminated 167164 rows and 13272 columns.
MIP Presolve modified 1633 coefficients.
Aggregator did 157352 substitutions.
Reduced MIP has 13745 rows, 159564 columns, and 333186 nonzeros.
Reduced MIP has 159518 binaries, 46 generals, 0 SOSs, and 0 indicators.
Presolve time = 2.41 sec. (2496.92 ticks)
Tried aggregator 1 time.
Detecting symmetries...
Reduced MIP has 13745 rows, 159564 columns, and 333186 nonzeros.
Reduced MIP has 159518 binaries, 46 generals, 0 SOSs, and 0 indicators.
Presolve time = 0.44 sec. (266.60 ticks)
Probing fixed 69 vars, tightened 0 bounds.
Probing time = 0.98 sec. (84.97 ticks)
Clique table members: 322207.
MIP emphasis: balance optimality and feasibility.
MIP search method: dynamic search.
Parallel mode: deterministic, using up to 8 threads.
Root relaxation solution time = 3.31 sec. (1222.47 ticks)

        Nodes                                         Cuts/
   Node  Left     Objective  IInf  Best Integer    Best Bound    ItCnt     Gap

      0     0       46.3920 10355                     46.3920       27         
      0     0       74.0000  1260                   Fract: 28    28751         
      0     0       74.0000  1092                    Cuts: 80    49008         
      0     0       74.0000  1013                ZeroHalf: 70    67520         
      0     0       74.0000   984                ZeroHalf: 61    84965         
      0     0       74.0000  1210                ZeroHalf: 47   103154         
      0     0       74.0000  1067                ZeroHalf: 44   117158         

Zero-half cuts applied:  230
Lift and project cuts applied:  1
Gomory fractional cuts applied:  29

Root node processing (before b&c):
  Real time             =  600.02 sec. (253831.20 ticks)
Parallel b&c, 8 threads:
  Real time             =    0.00 sec. (0.00 ticks)
  Sync time (average)   =    0.00 sec.
  Wait time (average)   =    0.00 sec.
                          ------------
Total (root+branch&cut) =  600.02 sec. (253831.20 ticks)
